certificates/rado_a13_c108_N31.cnf
c Rad2 upper bound instance: x1 + 13*x2 - x3 = 108, interval [1,31]
p cnf 31 146
1 9 10 0
-1 -9 -10 0
1 10 23 0
-1 -10 -23 0
2 9 11 0
-2 -9 -11 0
2 10 24 0
-2 -10 -24 0
3 9 12 0
-3 -9 -12 0
3 10 25 0
-3 -10 -25 0
4 9 13 0
-4 -9 -13 0
4 10 26 0
-4 -10 -26 0
1 5 8 0
-1 -5 -8 0
5 9 14 0
-5 -9 -14 0
5 10 27 0
-5 -10 -27 0
2 6 8 0
-2 -6 -8 0
6 9 15 0
-6 -9 -15 0
6 10 28 0
-6 -10 -28 0
3 7 8 0
-3 -7 -8 0
7 9 16 0
-7 -9 -16 0
7 10 29 0
-7 -10 -29 0
4 8 0
-4 -8 0
8 9 17 0
-8 -9 -17 0
8 10 30 0
-8 -10 -30 0
5 8 9 0
-5 -8 -9 0
9 18 0
-9 -18 0
9 10 31 0
-9 -10 -31 0
6 8 10 0
-6 -8 -10 0
9 10 19 0
-9 -10 -19 0
7 8 11 0
-7 -8 -11 0
9 11 20 0
-9 -11 -20 0
8 12 0
-8 -12 0
9 12 21 0
-9 -12 -21 0
8 9 13 0
-8 -9 -13 0
9 13 22 0
-9 -13 -22 0
8 10 14 0
-8 -10 -14 0
9 14 23 0
-9 -14 -23 0
8 11 15 0
-8 -11 -15 0
9 15 24 0
-9 -15 -24 0
8 12 16 0
-8 -12 -16 0
9 16 25 0
-9 -16 -25 0
8 13 17 0
-8 -13 -17 0
9 17 26 0
-9 -17 -26 0
1 7 18 0
-1 -7 -18 0
8 14 18 0
-8 -14 -18 0
9 18 27 0
-9 -18 -27 0
2 7 19 0
-2 -7 -19 0
8 15 19 0
-8 -15 -19 0
9 19 28 0
-9 -19 -28 0
3 7 20 0
-3 -7 -20 0
8 16 20 0
-8 -16 -20 0
9 20 29 0
-9 -20 -29 0
4 7 21 0
-4 -7 -21 0
8 17 21 0
-8 -17 -21 0
9 21 30 0
-9 -21 -30 0
5 7 22 0
-5 -7 -22 0
8 18 22 0
-8 -18 -22 0
9 22 31 0
-9 -22 -31 0
6 7 23 0
-6 -7 -23 0
8 19 23 0
-8 -19 -23 0
7 24 0
-7 -24 0
8 20 24 0
-8 -20 -24 0
7 8 25 0
-7 -8 -25 0
8 21 25 0
-8 -21 -25 0
7 9 26 0
-7 -9 -26 0
8 22 26 0
-8 -22 -26 0
7 10 27 0
-7 -10 -27 0
8 23 27 0
-8 -23 -27 0
7 11 28 0
-7 -11 -28 0
8 24 28 0
-8 -24 -28 0
7 12 29 0
-7 -12 -29 0
8 25 29 0
-8 -25 -29 0
7 13 30 0
-7 -13 -30 0
8 26 30 0
-8 -26 -30 0
1 6 31 0
-1 -6 -31 0
7 14 31 0
-7 -14 -31 0
8 27 31 0
-8 -27 -31 0
