certificates/rado_a13_c108_N31.drat
8 -29 -31 0
-8 -30 0
10 8 -31 0
-30 -31 0
8 -10 30 0
-10 -31 0
-31 0
-8 10 0
10 0
5 8 0
d 5 1 8 0
8 0
-4 0
-12 0
-30 0
-14 0
-6 0
7 0
1 0
-3 0
-11 0
-24 0
-25 0
-29 0
-27 0
-5 0
-18 0
-9 0
-23 0
0
